s = 4; % four students to be scheduled 
d = 3; % three available dates 

studentNames = ["Marc", "Andre", "Frank", "Catherine"];
dateNames = ["MonMorning", "MonEvening", "TueMorning"];

minPerDate = 0;
maxPerDate = 2;